\ENCODING=ISO-8859-1
\Problem name: IloCplex

Maximize
 #0: 84.381033022862 y_0 + 31.281117696867 y_1 - 17.1058425063505 y_2
     + 84.381033022862 y_3 + 5.11346316680778 y_4 + 33.5554614733277 y_5
     + 84.381033022862 y_6 + 23.0763714533541 y_7 + 40.5927180355631 y_8
     + 6.77798925790757 y_9 - 0.629974597798478 phi_0_1
     - 2.64723983395634 phi_0_3 - 3.45469940728196 phi_0_6
     - 0.709323286531524 phi_0_7 - 0.558762874431694 phi_0_9
     - 1.10245554614734 phi_1_1 - 4.6326697094236 phi_1_3
     - 6.04572396274343 phi_1_6 - 1.24131575143017 phi_1_7
     - 0.977835030255464 phi_1_9 - 2.28365791701948 phi_2_1
     - 9.59624439809174 phi_2_3 - 12.5232853513971 phi_2_6
     - 2.57129691367677 phi_2_7 - 2.02551541981489 phi_2_9
     - 2.51989839119391 phi_3_1 - 10.5889593358254 phi_3_3
     - 13.8187976291278 phi_3_6 - 2.83729314612609 phi_3_7
     - 2.23505149772678 phi_3_9 - 2.91363251481796 phi_4_1
     - 12.2434842320481 phi_4_3 - 15.9779847586791 phi_4_6
     - 3.2806202002083 phi_4_7 - 2.58427829424658 phi_4_9
     - 3.14987298899239 phi_5_1 - 13.2361991697817 phi_5_3
     - 17.2734970364098 phi_5_6 - 3.54661643265762 phi_5_7
     - 2.79381437215847 phi_5_9 - 3.2286198137172 phi_6_1
     - 13.5671041490263 phi_6_3 - 17.7053344623201 phi_6_6
     - 3.63528184347406 phi_6_7 - 2.86365973146243 phi_6_9
     - 4.09483488569011 phi_7_1 - 17.2070589207162 phi_7_3
     - 22.4555461473328 phi_7_6 - 4.6106013624549 phi_7_7
     - 3.63195868380601 phi_7_9 - 4.17358171041492 phi_8_1
     - 17.5379638999608 phi_8_3 - 22.887383573243 phi_8_6
     - 4.69926677327134 phi_8_7 - 3.70180404310997 phi_8_9
     - 4.33107535986454 phi_9_1 - 18.1997738584499 phi_9_3
     - 23.7510584250635 phi_9_6 - 4.87659759490422 phi_9_7
     - 3.8414947617179 phi_9_9 - 4.96104995766301 phi_10_1
     - 20.8470136924062 phi_10_3 - 27.2057578323454 phi_10_6
     - 5.58592088143575 phi_10_7 - 4.40025763614959 phi_10_9
     - 5.35478408128706 phi_11_1 - 22.5015385886289 phi_11_3
     - 29.3649449618967 phi_11_6 - 6.02924793551795 phi_11_7
     - 4.7494844326694 phi_11_9 - 7.40220152413212 phi_12_1
     - 31.105068048987 phi_12_3 - 40.5927180355631 phi_12_6
     - 8.3345486167454 phi_12_7 - 6.5654637745724 phi_12_9
     - 787.468247248098 phi_13_1 - 3309.04979244543 phi_13_3
     - 4318.37425910245 phi_13_6 - 886.654108164404 phi_13_7
     - 698.453593039617 phi_13_9 - 84.381033022862
Subject To
 c1:   x_0 + x_1 + x_2 + x_3 + x_4 + x_5 + x_6 + x_7 + x_8 + x_9 + x_10 + x_11
       + x_12 + x_13 - y_0 - y_1 - y_2 - y_3 - y_4 - y_5 - y_6 - y_7 - y_8
       - y_9  = -1
 c2:   x_0 - y_7 <= 0
 c3:   x_0 - y_9 <= 0
 c4:   x_1 - y_2 <= 0
 c5:   x_1 - y_4 <= 0
 c6:   x_2 - y_1 <= 0
 c7:   x_2 - y_2 <= 0
 c8:   x_3 - y_4 <= 0
 c9:   x_3 - y_5 <= 0
 c10:  x_4 - y_1 <= 0
 c11:  x_4 - y_5 <= 0
 c12:  x_5 - y_2 <= 0
 c13:  x_5 - y_8 <= 0
 c14:  x_6 - y_2 <= 0
 c15:  x_6 - y_9 <= 0
 c16:  x_7 - y_2 <= 0
 c17:  x_7 - y_5 <= 0
 c18:  x_8 - y_3 <= 0
 c19:  x_8 - y_9 <= 0
 c20:  x_9 - y_3 <= 0
 c21:  x_9 - y_7 <= 0
 c22:  x_10 - y_6 <= 0
 c23:  x_10 - y_9 <= 0
 c24:  x_11 - y_4 <= 0
 c25:  x_11 - y_6 <= 0
 c26:  x_12 - y_6 <= 0
 c27:  x_12 - y_8 <= 0
 c28:  x_13 - y_0 <= 0
 c29:  x_13 - y_9 <= 0
 c30:  - x_0 + phi_0_0 <= 0
 c31:  - y_0 + phi_0_0 <= 0
 c32:  - x_0 - y_0 + phi_0_0 >= -1
 c33:  - x_0 + phi_0_1 <= 0
 c34:  - y_1 + phi_0_1 <= 0
 c35:  - x_0 - y_1 + phi_0_1 >= -1
 c36:  - x_0 + phi_0_2 <= 0
 c37:  - y_2 + phi_0_2 <= 0
 c38:  - x_0 - y_2 + phi_0_2 >= -1
 c39:  - x_0 + phi_0_3 <= 0
 c40:  - y_3 + phi_0_3 <= 0
 c41:  - x_0 - y_3 + phi_0_3 >= -1
 c42:  - x_0 + phi_0_4 <= 0
 c43:  - y_4 + phi_0_4 <= 0
 c44:  - x_0 - y_4 + phi_0_4 >= -1
 c45:  - x_0 + phi_0_5 <= 0
 c46:  - y_5 + phi_0_5 <= 0
 c47:  - x_0 - y_5 + phi_0_5 >= -1
 c48:  - x_0 + phi_0_6 <= 0
 c49:  - y_6 + phi_0_6 <= 0
 c50:  - x_0 - y_6 + phi_0_6 >= -1
 c51:  - x_0 + phi_0_7 <= 0
 c52:  - y_7 + phi_0_7 <= 0
 c53:  - x_0 - y_7 + phi_0_7 >= -1
 c54:  - x_0 + phi_0_8 <= 0
 c55:  - y_8 + phi_0_8 <= 0
 c56:  - x_0 - y_8 + phi_0_8 >= -1
 c57:  - x_0 + phi_0_9 <= 0
 c58:  - y_9 + phi_0_9 <= 0
 c59:  - x_0 - y_9 + phi_0_9 >= -1
 c60:  - x_1 + phi_1_0 <= 0
 c61:  - y_0 + phi_1_0 <= 0
 c62:  - x_1 - y_0 + phi_1_0 >= -1
 c63:  - x_1 + phi_1_1 <= 0
 c64:  - y_1 + phi_1_1 <= 0
 c65:  - x_1 - y_1 + phi_1_1 >= -1
 c66:  - x_1 + phi_1_2 <= 0
 c67:  - y_2 + phi_1_2 <= 0
 c68:  - x_1 - y_2 + phi_1_2 >= -1
 c69:  - x_1 + phi_1_3 <= 0
 c70:  - y_3 + phi_1_3 <= 0
 c71:  - x_1 - y_3 + phi_1_3 >= -1
 c72:  - x_1 + phi_1_4 <= 0
 c73:  - y_4 + phi_1_4 <= 0
 c74:  - x_1 - y_4 + phi_1_4 >= -1
 c75:  - x_1 + phi_1_5 <= 0
 c76:  - y_5 + phi_1_5 <= 0
 c77:  - x_1 - y_5 + phi_1_5 >= -1
 c78:  - x_1 + phi_1_6 <= 0
 c79:  - y_6 + phi_1_6 <= 0
 c80:  - x_1 - y_6 + phi_1_6 >= -1
 c81:  - x_1 + phi_1_7 <= 0
 c82:  - y_7 + phi_1_7 <= 0
 c83:  - x_1 - y_7 + phi_1_7 >= -1
 c84:  - x_1 + phi_1_8 <= 0
 c85:  - y_8 + phi_1_8 <= 0
 c86:  - x_1 - y_8 + phi_1_8 >= -1
 c87:  - x_1 + phi_1_9 <= 0
 c88:  - y_9 + phi_1_9 <= 0
 c89:  - x_1 - y_9 + phi_1_9 >= -1
 c90:  - x_2 + phi_2_0 <= 0
 c91:  - y_0 + phi_2_0 <= 0
 c92:  - x_2 - y_0 + phi_2_0 >= -1
 c93:  - x_2 + phi_2_1 <= 0
 c94:  - y_1 + phi_2_1 <= 0
 c95:  - x_2 - y_1 + phi_2_1 >= -1
 c96:  - x_2 + phi_2_2 <= 0
 c97:  - y_2 + phi_2_2 <= 0
 c98:  - x_2 - y_2 + phi_2_2 >= -1
 c99:  - x_2 + phi_2_3 <= 0
 c100: - y_3 + phi_2_3 <= 0
 c101: - x_2 - y_3 + phi_2_3 >= -1
 c102: - x_2 + phi_2_4 <= 0
 c103: - y_4 + phi_2_4 <= 0
 c104: - x_2 - y_4 + phi_2_4 >= -1
 c105: - x_2 + phi_2_5 <= 0
 c106: - y_5 + phi_2_5 <= 0
 c107: - x_2 - y_5 + phi_2_5 >= -1
 c108: - x_2 + phi_2_6 <= 0
 c109: - y_6 + phi_2_6 <= 0
 c110: - x_2 - y_6 + phi_2_6 >= -1
 c111: - x_2 + phi_2_7 <= 0
 c112: - y_7 + phi_2_7 <= 0
 c113: - x_2 - y_7 + phi_2_7 >= -1
 c114: - x_2 + phi_2_8 <= 0
 c115: - y_8 + phi_2_8 <= 0
 c116: - x_2 - y_8 + phi_2_8 >= -1
 c117: - x_2 + phi_2_9 <= 0
 c118: - y_9 + phi_2_9 <= 0
 c119: - x_2 - y_9 + phi_2_9 >= -1
 c120: - x_3 + phi_3_0 <= 0
 c121: - y_0 + phi_3_0 <= 0
 c122: - x_3 - y_0 + phi_3_0 >= -1
 c123: - x_3 + phi_3_1 <= 0
 c124: - y_1 + phi_3_1 <= 0
 c125: - x_3 - y_1 + phi_3_1 >= -1
 c126: - x_3 + phi_3_2 <= 0
 c127: - y_2 + phi_3_2 <= 0
 c128: - x_3 - y_2 + phi_3_2 >= -1
 c129: - x_3 + phi_3_3 <= 0
 c130: - y_3 + phi_3_3 <= 0
 c131: - x_3 - y_3 + phi_3_3 >= -1
 c132: - x_3 + phi_3_4 <= 0
 c133: - y_4 + phi_3_4 <= 0
 c134: - x_3 - y_4 + phi_3_4 >= -1
 c135: - x_3 + phi_3_5 <= 0
 c136: - y_5 + phi_3_5 <= 0
 c137: - x_3 - y_5 + phi_3_5 >= -1
 c138: - x_3 + phi_3_6 <= 0
 c139: - y_6 + phi_3_6 <= 0
 c140: - x_3 - y_6 + phi_3_6 >= -1
 c141: - x_3 + phi_3_7 <= 0
 c142: - y_7 + phi_3_7 <= 0
 c143: - x_3 - y_7 + phi_3_7 >= -1
 c144: - x_3 + phi_3_8 <= 0
 c145: - y_8 + phi_3_8 <= 0
 c146: - x_3 - y_8 + phi_3_8 >= -1
 c147: - x_3 + phi_3_9 <= 0
 c148: - y_9 + phi_3_9 <= 0
 c149: - x_3 - y_9 + phi_3_9 >= -1
 c150: - x_4 + phi_4_0 <= 0
 c151: - y_0 + phi_4_0 <= 0
 c152: - x_4 - y_0 + phi_4_0 >= -1
 c153: - x_4 + phi_4_1 <= 0
 c154: - y_1 + phi_4_1 <= 0
 c155: - x_4 - y_1 + phi_4_1 >= -1
 c156: - x_4 + phi_4_2 <= 0
 c157: - y_2 + phi_4_2 <= 0
 c158: - x_4 - y_2 + phi_4_2 >= -1
 c159: - x_4 + phi_4_3 <= 0
 c160: - y_3 + phi_4_3 <= 0
 c161: - x_4 - y_3 + phi_4_3 >= -1
 c162: - x_4 + phi_4_4 <= 0
 c163: - y_4 + phi_4_4 <= 0
 c164: - x_4 - y_4 + phi_4_4 >= -1
 c165: - x_4 + phi_4_5 <= 0
 c166: - y_5 + phi_4_5 <= 0
 c167: - x_4 - y_5 + phi_4_5 >= -1
 c168: - x_4 + phi_4_6 <= 0
 c169: - y_6 + phi_4_6 <= 0
 c170: - x_4 - y_6 + phi_4_6 >= -1
 c171: - x_4 + phi_4_7 <= 0
 c172: - y_7 + phi_4_7 <= 0
 c173: - x_4 - y_7 + phi_4_7 >= -1
 c174: - x_4 + phi_4_8 <= 0
 c175: - y_8 + phi_4_8 <= 0
 c176: - x_4 - y_8 + phi_4_8 >= -1
 c177: - x_4 + phi_4_9 <= 0
 c178: - y_9 + phi_4_9 <= 0
 c179: - x_4 - y_9 + phi_4_9 >= -1
 c180: - x_5 + phi_5_0 <= 0
 c181: - y_0 + phi_5_0 <= 0
 c182: - x_5 - y_0 + phi_5_0 >= -1
 c183: - x_5 + phi_5_1 <= 0
 c184: - y_1 + phi_5_1 <= 0
 c185: - x_5 - y_1 + phi_5_1 >= -1
 c186: - x_5 + phi_5_2 <= 0
 c187: - y_2 + phi_5_2 <= 0
 c188: - x_5 - y_2 + phi_5_2 >= -1
 c189: - x_5 + phi_5_3 <= 0
 c190: - y_3 + phi_5_3 <= 0
 c191: - x_5 - y_3 + phi_5_3 >= -1
 c192: - x_5 + phi_5_4 <= 0
 c193: - y_4 + phi_5_4 <= 0
 c194: - x_5 - y_4 + phi_5_4 >= -1
 c195: - x_5 + phi_5_5 <= 0
 c196: - y_5 + phi_5_5 <= 0
 c197: - x_5 - y_5 + phi_5_5 >= -1
 c198: - x_5 + phi_5_6 <= 0
 c199: - y_6 + phi_5_6 <= 0
 c200: - x_5 - y_6 + phi_5_6 >= -1
 c201: - x_5 + phi_5_7 <= 0
 c202: - y_7 + phi_5_7 <= 0
 c203: - x_5 - y_7 + phi_5_7 >= -1
 c204: - x_5 + phi_5_8 <= 0
 c205: - y_8 + phi_5_8 <= 0
 c206: - x_5 - y_8 + phi_5_8 >= -1
 c207: - x_5 + phi_5_9 <= 0
 c208: - y_9 + phi_5_9 <= 0
 c209: - x_5 - y_9 + phi_5_9 >= -1
 c210: - x_6 + phi_6_0 <= 0
 c211: - y_0 + phi_6_0 <= 0
 c212: - x_6 - y_0 + phi_6_0 >= -1
 c213: - x_6 + phi_6_1 <= 0
 c214: - y_1 + phi_6_1 <= 0
 c215: - x_6 - y_1 + phi_6_1 >= -1
 c216: - x_6 + phi_6_2 <= 0
 c217: - y_2 + phi_6_2 <= 0
 c218: - x_6 - y_2 + phi_6_2 >= -1
 c219: - x_6 + phi_6_3 <= 0
 c220: - y_3 + phi_6_3 <= 0
 c221: - x_6 - y_3 + phi_6_3 >= -1
 c222: - x_6 + phi_6_4 <= 0
 c223: - y_4 + phi_6_4 <= 0
 c224: - x_6 - y_4 + phi_6_4 >= -1
 c225: - x_6 + phi_6_5 <= 0
 c226: - y_5 + phi_6_5 <= 0
 c227: - x_6 - y_5 + phi_6_5 >= -1
 c228: - x_6 + phi_6_6 <= 0
 c229: - y_6 + phi_6_6 <= 0
 c230: - x_6 - y_6 + phi_6_6 >= -1
 c231: - x_6 + phi_6_7 <= 0
 c232: - y_7 + phi_6_7 <= 0
 c233: - x_6 - y_7 + phi_6_7 >= -1
 c234: - x_6 + phi_6_8 <= 0
 c235: - y_8 + phi_6_8 <= 0
 c236: - x_6 - y_8 + phi_6_8 >= -1
 c237: - x_6 + phi_6_9 <= 0
 c238: - y_9 + phi_6_9 <= 0
 c239: - x_6 - y_9 + phi_6_9 >= -1
 c240: - x_7 + phi_7_0 <= 0
 c241: - y_0 + phi_7_0 <= 0
 c242: - x_7 - y_0 + phi_7_0 >= -1
 c243: - x_7 + phi_7_1 <= 0
 c244: - y_1 + phi_7_1 <= 0
 c245: - x_7 - y_1 + phi_7_1 >= -1
 c246: - x_7 + phi_7_2 <= 0
 c247: - y_2 + phi_7_2 <= 0
 c248: - x_7 - y_2 + phi_7_2 >= -1
 c249: - x_7 + phi_7_3 <= 0
 c250: - y_3 + phi_7_3 <= 0
 c251: - x_7 - y_3 + phi_7_3 >= -1
 c252: - x_7 + phi_7_4 <= 0
 c253: - y_4 + phi_7_4 <= 0
 c254: - x_7 - y_4 + phi_7_4 >= -1
 c255: - x_7 + phi_7_5 <= 0
 c256: - y_5 + phi_7_5 <= 0
 c257: - x_7 - y_5 + phi_7_5 >= -1
 c258: - x_7 + phi_7_6 <= 0
 c259: - y_6 + phi_7_6 <= 0
 c260: - x_7 - y_6 + phi_7_6 >= -1
 c261: - x_7 + phi_7_7 <= 0
 c262: - y_7 + phi_7_7 <= 0
 c263: - x_7 - y_7 + phi_7_7 >= -1
 c264: - x_7 + phi_7_8 <= 0
 c265: - y_8 + phi_7_8 <= 0
 c266: - x_7 - y_8 + phi_7_8 >= -1
 c267: - x_7 + phi_7_9 <= 0
 c268: - y_9 + phi_7_9 <= 0
 c269: - x_7 - y_9 + phi_7_9 >= -1
 c270: - x_8 + phi_8_0 <= 0
 c271: - y_0 + phi_8_0 <= 0
 c272: - x_8 - y_0 + phi_8_0 >= -1
 c273: - x_8 + phi_8_1 <= 0
 c274: - y_1 + phi_8_1 <= 0
 c275: - x_8 - y_1 + phi_8_1 >= -1
 c276: - x_8 + phi_8_2 <= 0
 c277: - y_2 + phi_8_2 <= 0
 c278: - x_8 - y_2 + phi_8_2 >= -1
 c279: - x_8 + phi_8_3 <= 0
 c280: - y_3 + phi_8_3 <= 0
 c281: - x_8 - y_3 + phi_8_3 >= -1
 c282: - x_8 + phi_8_4 <= 0
 c283: - y_4 + phi_8_4 <= 0
 c284: - x_8 - y_4 + phi_8_4 >= -1
 c285: - x_8 + phi_8_5 <= 0
 c286: - y_5 + phi_8_5 <= 0
 c287: - x_8 - y_5 + phi_8_5 >= -1
 c288: - x_8 + phi_8_6 <= 0
 c289: - y_6 + phi_8_6 <= 0
 c290: - x_8 - y_6 + phi_8_6 >= -1
 c291: - x_8 + phi_8_7 <= 0
 c292: - y_7 + phi_8_7 <= 0
 c293: - x_8 - y_7 + phi_8_7 >= -1
 c294: - x_8 + phi_8_8 <= 0
 c295: - y_8 + phi_8_8 <= 0
 c296: - x_8 - y_8 + phi_8_8 >= -1
 c297: - x_8 + phi_8_9 <= 0
 c298: - y_9 + phi_8_9 <= 0
 c299: - x_8 - y_9 + phi_8_9 >= -1
 c300: - x_9 + phi_9_0 <= 0
 c301: - y_0 + phi_9_0 <= 0
 c302: - x_9 - y_0 + phi_9_0 >= -1
 c303: - x_9 + phi_9_1 <= 0
 c304: - y_1 + phi_9_1 <= 0
 c305: - x_9 - y_1 + phi_9_1 >= -1
 c306: - x_9 + phi_9_2 <= 0
 c307: - y_2 + phi_9_2 <= 0
 c308: - x_9 - y_2 + phi_9_2 >= -1
 c309: - x_9 + phi_9_3 <= 0
 c310: - y_3 + phi_9_3 <= 0
 c311: - x_9 - y_3 + phi_9_3 >= -1
 c312: - x_9 + phi_9_4 <= 0
 c313: - y_4 + phi_9_4 <= 0
 c314: - x_9 - y_4 + phi_9_4 >= -1
 c315: - x_9 + phi_9_5 <= 0
 c316: - y_5 + phi_9_5 <= 0
 c317: - x_9 - y_5 + phi_9_5 >= -1
 c318: - x_9 + phi_9_6 <= 0
 c319: - y_6 + phi_9_6 <= 0
 c320: - x_9 - y_6 + phi_9_6 >= -1
 c321: - x_9 + phi_9_7 <= 0
 c322: - y_7 + phi_9_7 <= 0
 c323: - x_9 - y_7 + phi_9_7 >= -1
 c324: - x_9 + phi_9_8 <= 0
 c325: - y_8 + phi_9_8 <= 0
 c326: - x_9 - y_8 + phi_9_8 >= -1
 c327: - x_9 + phi_9_9 <= 0
 c328: - y_9 + phi_9_9 <= 0
 c329: - x_9 - y_9 + phi_9_9 >= -1
 c330: - x_10 + phi_10_0 <= 0
 c331: - y_0 + phi_10_0 <= 0
 c332: - x_10 - y_0 + phi_10_0 >= -1
 c333: - x_10 + phi_10_1 <= 0
 c334: - y_1 + phi_10_1 <= 0
 c335: - x_10 - y_1 + phi_10_1 >= -1
 c336: - x_10 + phi_10_2 <= 0
 c337: - y_2 + phi_10_2 <= 0
 c338: - x_10 - y_2 + phi_10_2 >= -1
 c339: - x_10 + phi_10_3 <= 0
 c340: - y_3 + phi_10_3 <= 0
 c341: - x_10 - y_3 + phi_10_3 >= -1
 c342: - x_10 + phi_10_4 <= 0
 c343: - y_4 + phi_10_4 <= 0
 c344: - x_10 - y_4 + phi_10_4 >= -1
 c345: - x_10 + phi_10_5 <= 0
 c346: - y_5 + phi_10_5 <= 0
 c347: - x_10 - y_5 + phi_10_5 >= -1
 c348: - x_10 + phi_10_6 <= 0
 c349: - y_6 + phi_10_6 <= 0
 c350: - x_10 - y_6 + phi_10_6 >= -1
 c351: - x_10 + phi_10_7 <= 0
 c352: - y_7 + phi_10_7 <= 0
 c353: - x_10 - y_7 + phi_10_7 >= -1
 c354: - x_10 + phi_10_8 <= 0
 c355: - y_8 + phi_10_8 <= 0
 c356: - x_10 - y_8 + phi_10_8 >= -1
 c357: - x_10 + phi_10_9 <= 0
 c358: - y_9 + phi_10_9 <= 0
 c359: - x_10 - y_9 + phi_10_9 >= -1
 c360: - x_11 + phi_11_0 <= 0
 c361: - y_0 + phi_11_0 <= 0
 c362: - x_11 - y_0 + phi_11_0 >= -1
 c363: - x_11 + phi_11_1 <= 0
 c364: - y_1 + phi_11_1 <= 0
 c365: - x_11 - y_1 + phi_11_1 >= -1
 c366: - x_11 + phi_11_2 <= 0
 c367: - y_2 + phi_11_2 <= 0
 c368: - x_11 - y_2 + phi_11_2 >= -1
 c369: - x_11 + phi_11_3 <= 0
 c370: - y_3 + phi_11_3 <= 0
 c371: - x_11 - y_3 + phi_11_3 >= -1
 c372: - x_11 + phi_11_4 <= 0
 c373: - y_4 + phi_11_4 <= 0
 c374: - x_11 - y_4 + phi_11_4 >= -1
 c375: - x_11 + phi_11_5 <= 0
 c376: - y_5 + phi_11_5 <= 0
 c377: - x_11 - y_5 + phi_11_5 >= -1
 c378: - x_11 + phi_11_6 <= 0
 c379: - y_6 + phi_11_6 <= 0
 c380: - x_11 - y_6 + phi_11_6 >= -1
 c381: - x_11 + phi_11_7 <= 0
 c382: - y_7 + phi_11_7 <= 0
 c383: - x_11 - y_7 + phi_11_7 >= -1
 c384: - x_11 + phi_11_8 <= 0
 c385: - y_8 + phi_11_8 <= 0
 c386: - x_11 - y_8 + phi_11_8 >= -1
 c387: - x_11 + phi_11_9 <= 0
 c388: - y_9 + phi_11_9 <= 0
 c389: - x_11 - y_9 + phi_11_9 >= -1
 c390: - x_12 + phi_12_0 <= 0
 c391: - y_0 + phi_12_0 <= 0
 c392: - x_12 - y_0 + phi_12_0 >= -1
 c393: - x_12 + phi_12_1 <= 0
 c394: - y_1 + phi_12_1 <= 0
 c395: - x_12 - y_1 + phi_12_1 >= -1
 c396: - x_12 + phi_12_2 <= 0
 c397: - y_2 + phi_12_2 <= 0
 c398: - x_12 - y_2 + phi_12_2 >= -1
 c399: - x_12 + phi_12_3 <= 0
 c400: - y_3 + phi_12_3 <= 0
 c401: - x_12 - y_3 + phi_12_3 >= -1
 c402: - x_12 + phi_12_4 <= 0
 c403: - y_4 + phi_12_4 <= 0
 c404: - x_12 - y_4 + phi_12_4 >= -1
 c405: - x_12 + phi_12_5 <= 0
 c406: - y_5 + phi_12_5 <= 0
 c407: - x_12 - y_5 + phi_12_5 >= -1
 c408: - x_12 + phi_12_6 <= 0
 c409: - y_6 + phi_12_6 <= 0
 c410: - x_12 - y_6 + phi_12_6 >= -1
 c411: - x_12 + phi_12_7 <= 0
 c412: - y_7 + phi_12_7 <= 0
 c413: - x_12 - y_7 + phi_12_7 >= -1
 c414: - x_12 + phi_12_8 <= 0
 c415: - y_8 + phi_12_8 <= 0
 c416: - x_12 - y_8 + phi_12_8 >= -1
 c417: - x_12 + phi_12_9 <= 0
 c418: - y_9 + phi_12_9 <= 0
 c419: - x_12 - y_9 + phi_12_9 >= -1
 c420: - x_13 + phi_13_0 <= 0
 c421: - y_0 + phi_13_0 <= 0
 c422: - x_13 - y_0 + phi_13_0 >= -1
 c423: - x_13 + phi_13_1 <= 0
 c424: - y_1 + phi_13_1 <= 0
 c425: - x_13 - y_1 + phi_13_1 >= -1
 c426: - x_13 + phi_13_2 <= 0
 c427: - y_2 + phi_13_2 <= 0
 c428: - x_13 - y_2 + phi_13_2 >= -1
 c429: - x_13 + phi_13_3 <= 0
 c430: - y_3 + phi_13_3 <= 0
 c431: - x_13 - y_3 + phi_13_3 >= -1
 c432: - x_13 + phi_13_4 <= 0
 c433: - y_4 + phi_13_4 <= 0
 c434: - x_13 - y_4 + phi_13_4 >= -1
 c435: - x_13 + phi_13_5 <= 0
 c436: - y_5 + phi_13_5 <= 0
 c437: - x_13 - y_5 + phi_13_5 >= -1
 c438: - x_13 + phi_13_6 <= 0
 c439: - y_6 + phi_13_6 <= 0
 c440: - x_13 - y_6 + phi_13_6 >= -1
 c441: - x_13 + phi_13_7 <= 0
 c442: - y_7 + phi_13_7 <= 0
 c443: - x_13 - y_7 + phi_13_7 >= -1
 c444: - x_13 + phi_13_8 <= 0
 c445: - y_8 + phi_13_8 <= 0
 c446: - x_13 - y_8 + phi_13_8 >= -1
 c447: - x_13 + phi_13_9 <= 0
 c448: - y_9 + phi_13_9 <= 0
 c449: - x_13 - y_9 + phi_13_9 >= -1
 c450: x_13 - y_0 >= 0
 c451: x_2 + x_4 - y_1 >= 0
 c452: x_1 + x_2 + x_5 + x_6 + x_7 - y_2 >= 0
 c453: x_8 + x_9 - y_3 >= 0
 c454: x_1 + x_3 + x_11 - y_4 >= 0
 c455: x_3 + x_4 + x_7 - y_5 >= 0
 c456: x_10 + x_11 + x_12 - y_6 >= 0
 c457: x_0 + x_9 - y_7 >= 0
 c458: x_5 + x_12 - y_8 >= 0
 c459: x_0 + x_6 + x_8 + x_10 + x_13 - y_9 >= 0
User Cuts
 id789: x_0 + x_8 + x_9 <= 2
 id792: x_1 + x_3 + x_7 <= 2
 id795: x_1 + x_5 + x_11 + x_12 <= 3
 id798: x_3 + x_5 + x_7 + x_11 + x_12 <= 4
 id801: x_2 + x_4 + x_7 <= 2
 id804: x_2 + x_3 + x_4 + x_5 + x_11 + x_12 <= 5
 id807: x_1 + x_2 + x_3 + x_4 <= 3
 id812: x_0 + x_8 + x_9 <= 2
 id816: x_0 + x_8 + x_9 <= 2
 id820: x_0 + x_8 + x_9 <= 2
 id823: x_1 + x_2 + x_3 + x_4 <= 3
 id827: x_0 + x_8 + x_9 <= 2
 id830: x_1 + x_2 + x_3 + x_4 <= 3
 id835: x_1 + x_2 + x_3 + x_4 <= 3
 id840: x_1 + x_2 + x_3 + x_4 <= 3
 id846: x_1 + x_2 + x_3 + x_4 <= 3
 id852: x_1 + x_2 + x_3 + x_4 <= 3
 id857: x_0 + x_8 + x_9 <= 2
 id860: x_1 + x_2 + x_3 + x_4 <= 3
 id864: x_1 + x_3 + x_7 <= 2
 id867: x_2 + x_4 + x_7 <= 2
 id870: x_1 + x_2 + x_3 + x_4 <= 3
 id873: x_0 + x_8 + x_9 <= 2
 id877: x_0 + x_8 + x_9 <= 2
 id880: x_1 + x_3 + x_7 <= 2
 id883: x_1 + x_2 + x_3 + x_4 <= 3
 id886: x_2 + x_4 + x_7 <= 2
Bounds
 0 <= x_0 <= 1
 0 <= x_1 <= 1
 0 <= x_2 <= 1
 0 <= x_3 <= 1
 0 <= x_4 <= 1
 0 <= x_5 <= 1
 0 <= x_6 <= 1
 0 <= x_7 <= 1
 0 <= x_8 <= 1
 0 <= x_9 <= 1
 0 <= x_10 <= 1
 0 <= x_11 <= 1
 0 <= x_12 <= 1
 0 <= x_13 <= 1
 0 <= y_0 <= 1
 0 <= y_1 <= 1
 0 <= y_2 <= 1
 0 <= y_3 <= 1
 0 <= y_4 <= 1
 0 <= y_5 <= 1
 0 <= y_6 <= 1
 0 <= y_7 <= 1
 0 <= y_8 <= 1
 0 <= y_9 <= 1
 0 <= phi_0_0 <= 1
 0 <= phi_0_1 <= 1
 0 <= phi_0_2 <= 1
 0 <= phi_0_3 <= 1
 0 <= phi_0_4 <= 1
 0 <= phi_0_5 <= 1
 0 <= phi_0_6 <= 1
 0 <= phi_0_7 <= 1
 0 <= phi_0_8 <= 1
 0 <= phi_0_9 <= 1
 0 <= phi_1_0 <= 1
 0 <= phi_1_1 <= 1
 0 <= phi_1_2 <= 1
 0 <= phi_1_3 <= 1
 0 <= phi_1_4 <= 1
 0 <= phi_1_5 <= 1
 0 <= phi_1_6 <= 1
 0 <= phi_1_7 <= 1
 0 <= phi_1_8 <= 1
 0 <= phi_1_9 <= 1
 0 <= phi_2_0 <= 1
 0 <= phi_2_1 <= 1
 0 <= phi_2_2 <= 1
 0 <= phi_2_3 <= 1
 0 <= phi_2_4 <= 1
 0 <= phi_2_5 <= 1
 0 <= phi_2_6 <= 1
 0 <= phi_2_7 <= 1
 0 <= phi_2_8 <= 1
 0 <= phi_2_9 <= 1
 0 <= phi_3_0 <= 1
 0 <= phi_3_1 <= 1
 0 <= phi_3_2 <= 1
 0 <= phi_3_3 <= 1
 0 <= phi_3_4 <= 1
 0 <= phi_3_5 <= 1
 0 <= phi_3_6 <= 1
 0 <= phi_3_7 <= 1
 0 <= phi_3_8 <= 1
 0 <= phi_3_9 <= 1
 0 <= phi_4_0 <= 1
 0 <= phi_4_1 <= 1
 0 <= phi_4_2 <= 1
 0 <= phi_4_3 <= 1
 0 <= phi_4_4 <= 1
 0 <= phi_4_5 <= 1
 0 <= phi_4_6 <= 1
 0 <= phi_4_7 <= 1
 0 <= phi_4_8 <= 1
 0 <= phi_4_9 <= 1
 0 <= phi_5_0 <= 1
 0 <= phi_5_1 <= 1
 0 <= phi_5_2 <= 1
 0 <= phi_5_3 <= 1
 0 <= phi_5_4 <= 1
 0 <= phi_5_5 <= 1
 0 <= phi_5_6 <= 1
 0 <= phi_5_7 <= 1
 0 <= phi_5_8 <= 1
 0 <= phi_5_9 <= 1
 0 <= phi_6_0 <= 1
 0 <= phi_6_1 <= 1
 0 <= phi_6_2 <= 1
 0 <= phi_6_3 <= 1
 0 <= phi_6_4 <= 1
 0 <= phi_6_5 <= 1
 0 <= phi_6_6 <= 1
 0 <= phi_6_7 <= 1
 0 <= phi_6_8 <= 1
 0 <= phi_6_9 <= 1
 0 <= phi_7_0 <= 1
 0 <= phi_7_1 <= 1
 0 <= phi_7_2 <= 1
 0 <= phi_7_3 <= 1
 0 <= phi_7_4 <= 1
 0 <= phi_7_5 <= 1
 0 <= phi_7_6 <= 1
 0 <= phi_7_7 <= 1
 0 <= phi_7_8 <= 1
 0 <= phi_7_9 <= 1
 0 <= phi_8_0 <= 1
 0 <= phi_8_1 <= 1
 0 <= phi_8_2 <= 1
 0 <= phi_8_3 <= 1
 0 <= phi_8_4 <= 1
 0 <= phi_8_5 <= 1
 0 <= phi_8_6 <= 1
 0 <= phi_8_7 <= 1
 0 <= phi_8_8 <= 1
 0 <= phi_8_9 <= 1
 0 <= phi_9_0 <= 1
 0 <= phi_9_1 <= 1
 0 <= phi_9_2 <= 1
 0 <= phi_9_3 <= 1
 0 <= phi_9_4 <= 1
 0 <= phi_9_5 <= 1
 0 <= phi_9_6 <= 1
 0 <= phi_9_7 <= 1
 0 <= phi_9_8 <= 1
 0 <= phi_9_9 <= 1
 0 <= phi_10_0 <= 1
 0 <= phi_10_1 <= 1
 0 <= phi_10_2 <= 1
 0 <= phi_10_3 <= 1
 0 <= phi_10_4 <= 1
 0 <= phi_10_5 <= 1
 0 <= phi_10_6 <= 1
 0 <= phi_10_7 <= 1
 0 <= phi_10_8 <= 1
 0 <= phi_10_9 <= 1
 0 <= phi_11_0 <= 1
 0 <= phi_11_1 <= 1
 0 <= phi_11_2 <= 1
 0 <= phi_11_3 <= 1
 0 <= phi_11_4 <= 1
 0 <= phi_11_5 <= 1
 0 <= phi_11_6 <= 1
 0 <= phi_11_7 <= 1
 0 <= phi_11_8 <= 1
 0 <= phi_11_9 <= 1
 0 <= phi_12_0 <= 1
 0 <= phi_12_1 <= 1
 0 <= phi_12_2 <= 1
 0 <= phi_12_3 <= 1
 0 <= phi_12_4 <= 1
 0 <= phi_12_5 <= 1
 0 <= phi_12_6 <= 1
 0 <= phi_12_7 <= 1
 0 <= phi_12_8 <= 1
 0 <= phi_12_9 <= 1
 0 <= phi_13_0 <= 1
 0 <= phi_13_1 <= 1
 0 <= phi_13_2 <= 1
 0 <= phi_13_3 <= 1
 0 <= phi_13_4 <= 1
 0 <= phi_13_5 <= 1
 0 <= phi_13_6 <= 1
 0 <= phi_13_7 <= 1
 0 <= phi_13_8 <= 1
 0 <= phi_13_9 <= 1
Binaries
 x_0  x_1  x_2  x_3  x_4  x_5  x_6  x_7  x_8  x_9  x_10  x_11  x_12  x_13  y_0 
 y_1  y_2  y_3  y_4  y_5  y_6  y_7  y_8  y_9  phi_0_0  phi_0_1  phi_0_2 
 phi_0_3  phi_0_4  phi_0_5  phi_0_6  phi_0_7  phi_0_8  phi_0_9  phi_1_0 
 phi_1_1  phi_1_2  phi_1_3  phi_1_4  phi_1_5  phi_1_6  phi_1_7  phi_1_8 
 phi_1_9  phi_2_0  phi_2_1  phi_2_2  phi_2_3  phi_2_4  phi_2_5  phi_2_6 
 phi_2_7  phi_2_8  phi_2_9  phi_3_0  phi_3_1  phi_3_2  phi_3_3  phi_3_4 
 phi_3_5  phi_3_6  phi_3_7  phi_3_8  phi_3_9  phi_4_0  phi_4_1  phi_4_2 
 phi_4_3  phi_4_4  phi_4_5  phi_4_6  phi_4_7  phi_4_8  phi_4_9  phi_5_0 
 phi_5_1  phi_5_2  phi_5_3  phi_5_4  phi_5_5  phi_5_6  phi_5_7  phi_5_8 
 phi_5_9  phi_6_0  phi_6_1  phi_6_2  phi_6_3  phi_6_4  phi_6_5  phi_6_6 
 phi_6_7  phi_6_8  phi_6_9  phi_7_0  phi_7_1  phi_7_2  phi_7_3  phi_7_4 
 phi_7_5  phi_7_6  phi_7_7  phi_7_8  phi_7_9  phi_8_0  phi_8_1  phi_8_2 
 phi_8_3  phi_8_4  phi_8_5  phi_8_6  phi_8_7  phi_8_8  phi_8_9  phi_9_0 
 phi_9_1  phi_9_2  phi_9_3  phi_9_4  phi_9_5  phi_9_6  phi_9_7  phi_9_8 
 phi_9_9  phi_10_0  phi_10_1  phi_10_2  phi_10_3  phi_10_4  phi_10_5  phi_10_6 
 phi_10_7  phi_10_8  phi_10_9  phi_11_0  phi_11_1  phi_11_2  phi_11_3 
 phi_11_4  phi_11_5  phi_11_6  phi_11_7  phi_11_8  phi_11_9  phi_12_0 
 phi_12_1  phi_12_2  phi_12_3  phi_12_4  phi_12_5  phi_12_6  phi_12_7 
 phi_12_8  phi_12_9  phi_13_0  phi_13_1  phi_13_2  phi_13_3  phi_13_4 
 phi_13_5  phi_13_6  phi_13_7  phi_13_8  phi_13_9 
End
